;  time  = 600
;  terms = 28
;  score = 600
;  stdout= timeout

(set-logic QF_FP)
(declare-const x0 (_ FloatingPoint 8 24))
(declare-const x1 (_ FloatingPoint 8 24))
(declare-const x2 (_ FloatingPoint 8 24))
(declare-const x3 (_ FloatingPoint 8 24))
(assert (not (fp.isNaN x0)))
(assert (not (fp.isInfinite x0)))
(assert (not (fp.isZero x0)))
(assert (not (fp.isNaN x1)))
(assert (not (fp.isInfinite x1)))
(assert (not (fp.isZero x1)))
(assert (not (fp.isNaN x2)))
(assert (not (fp.isInfinite x2)))
(assert (not (fp.isZero x2)))
(assert (not (fp.isNaN x3)))
(assert (not (fp.isInfinite x3)))
(assert (not (fp.isZero x3)))
(assert (fp.eq (fp.sqrt RNE (fp.max (fp.div RNE x3 x0) (fp.min x1 (fp.rem x1 x2)))) (fp.min (fp.fma RNE (fp.roundToIntegral RNE x1) (fp.max x1 x3) (fp.min x2 x0)) (fp.div RNE (fp.min x3 x2) (fp.rem x0 x3)))))
(check-sat)